60
1 0 156
2 0 47
2 1 86
3 0 93
3 1 151
3 2 78
4 0 8
4 1 12
4 2 107
4 3 71
5 0 120
5 1 86
5 2 39
5 3 87
6 1 50
6 3 2
6 4 70
7 0 114
7 1 26
7 2 67
7 3 92
7 4 134
7 5 23
8 1 104
8 2 133
8 3 12
8 6 85
8 7 76
9 0 24
9 1 108
9 2 83
9 4 126
9 5 78
9 6 75
9 7 101
9 8 124
10 0 102
10 1 120
10 2 138
10 3 145
10 4 71
10 5 113
10 6 139
10 8 4
11 0 122
11 1 42
11 2 23
11 3 73
11 4 22
11 5 87
11 6 19
11 7 110
11 8 129
11 9 140
11 10 35
12 0 61
12 1 136
12 2 35
12 3 157
12 4 70
12 6 25
12 7 33
12 8 59
12 9 154
12 10 7
12 11 52
13 0 36
13 1 45
13 2 6
13 3 50
13 4 63
13 5 110
13 6 102
13 7 146
13 9 39
13 10 74
13 11 20
13 12 20
14 0 20
14 2 131
14 4 67
14 5 44
14 6 31
14 7 109
14 8 57
14 9 44
14 10 160
14 11 5
14 13 125
15 0 87
15 1 112
15 2 108
15 3 1
15 4 112
15 5 127
15 6 2
15 7 135
15 8 123
15 11 15
15 12 112
15 13 106
16 0 68
16 1 66
16 2 125
16 3 61
16 4 107
16 5 115
16 6 89
16 7 3
16 8 68
16 9 128
16 10 54
16 11 30
16 12 23
16 13 121
16 14 117
16 15 9
17 0 103
17 1 133
17 2 96
17 3 123
17 4 103
17 6 81
17 8 10
17 9 88
17 10 128
17 11 105
17 13 105
17 14 88
17 16 5
18 0 97
18 1 23
18 2 134
18 3 7
18 4 71
18 5 84
18 7 1
18 8 113
18 9 54
18 10 101
18 11 160
18 12 47
18 13 127
18 15 90
18 16 19
18 17 130
19 1 152
19 2 6
19 3 20
19 4 55
19 5 100
19 6 8
19 8 136
19 10 25
19 12 149
19 13 102
19 14 150
19 15 3
19 16 46
19 17 109
19 18 129
20 0 97
20 1 112
20 2 99
20 3 129
20 4 1
20 5 59
20 6 99
20 7 11
20 8 67
20 9 154
20 10 110
20 11 99
20 12 98
20 13 79
20 14 9
20 15 34
20 16 102
20 17 109
20 18 11
20 19 93
21 0 143
21 1 146
21 3 127
21 4 111
21 5 4
21 7 5
21 8 53
21 9 40
21 10 129
21 11 3
21 12 41
21 13 91
21 14 157
21 15 125
21 16 76
21 17 9
21 18 27
21 19 72
21 20 30
22 0 98
22 1 98
22 2 128
22 3 134
22 4 58
22 7 71
22 8 35
22 9 112
22 10 131
22 11 5
22 12 146
22 13 10
22 14 45
22 15 36
22 16 91
22 17 135
22 18 118
22 19 74
22 20 6
23 0 96
23 1 157
23 2 110
23 3 98
23 4 147
23 5 52
23 6 38
23 7 102
23 8 149
23 9 53
23 10 88
23 11 157
23 12 106
23 13 141
23 14 113
23 16 126
23 17 38
23 18 69
23 19 147
23 20 3
23 21 118
23 22 62
24 0 5
24 1 131
24 2 73
24 3 81
24 4 106
24 5 42
24 6 119
24 7 118
24 8 159
24 9 87
24 10 109
24 11 88
24 12 27
24 13 96
24 14 90
24 15 104
24 16 98
24 17 13
24 18 31
24 19 87
24 20 13
24 21 15
24 22 27
24 23 13
25 0 57
25 1 46
25 3 155
25 4 84
25 5 9
25 6 155
25 7 142
25 8 159
25 9 139
25 10 44
25 11 146
25 12 134
25 13 68
25 14 105
25 16 92
25 17 137
25 18 141
25 19 31
25 20 125
25 21 129
25 22 24
25 24 135
26 0 118
26 1 64
26 2 67
26 3 21
26 4 150
26 6 77
26 7 123
26 8 146
26 9 133
26 10 94
26 11 67
26 12 72
26 13 83
26 14 111
26 16 62
26 17 151
26 18 69
26 19 142
26 21 97
26 22 14
26 23 48
26 24 100
26 25 83
27 0 68
27 1 117
27 2 17
27 4 115
27 5 6
27 6 66
27 7 70
27 9 69
27 10 44
27 11 155
27 12 118
27 13 74
27 14 130
27 15 96
27 16 132
27 17 5
27 18 105
27 20 114
27 21 128
27 22 32
27 23 145
27 24 9
27 25 98
27 26 60
28 0 140
28 1 138
28 2 155
28 3 50
28 5 40
28 6 132
28 7 7
28 8 143
28 9 76
28 10 60
28 11 107
28 12 49
28 13 17
28 15 24
28 16 131
28 17 148
28 18 98
28 19 152
28 20 117
28 21 150
28 22 3
28 23 7
28 24 44
28 25 108
28 26 44
28 27 22
29 0 151
29 1 65
29 2 34
29 3 123
29 4 147
29 5 99
29 6 30
29 7 77
29 8 132
29 10 61
29 11 63
29 12 3
29 13 43
29 14 107
29 15 137
29 16 68
29 17 2
29 18 71
29 19 84
29 20 43
29 21 153
29 23 4
29 24 77
29 25 129
29 27 16
29 28 141
30 1 103
30 2 105
30 3 134
30 4 56
30 5 4
30 7 128
30 9 150
30 10 112
30 11 93
30 12 34
30 14 157
30 15 82
30 16 135
30 17 108
30 18 160
30 19 121
30 20 126
30 21 145
30 22 133
30 23 113
30 24 127
30 25 20
30 26 123
30 27 66
30 29 135
31 0 125
31 1 20
31 2 72
31 5 4
31 6 114
31 7 121
31 8 26
31 9 115
31 10 53
31 11 111
31 12 92
31 13 80
31 14 70
31 16 78
31 17 38
31 18 19
31 19 9
31 20 25
31 21 89
31 22 65
31 23 26
31 24 12
31 26 25
31 27 40
31 28 76
31 29 132
31 30 38
32 0 160
32 1 37
32 2 86
32 3 98
32 4 138
32 5 37
32 6 85
32 7 128
32 8 116
32 9 113
32 10 19
32 11 50
32 12 145
32 13 146
32 14 110
32 15 144
32 16 95
32 17 63
32 19 47
32 20 75
32 21 47
32 22 152
32 23 43
32 24 131
32 25 20
32 26 48
32 27 21
32 28 119
32 29 66
32 30 6
32 31 56
33 0 150
33 1 87
33 2 97
33 3 54
33 4 43
33 5 122
33 6 146
33 7 118
33 8 109
33 9 37
33 10 45
33 11 125
33 12 28
33 13 57
33 14 10
33 15 53
33 16 37
33 17 67
33 19 6
33 20 6
33 21 76
33 22 83
33 23 114
33 24 113
33 25 74
33 27 28
33 28 145
33 29 48
33 30 112
33 31 101
33 32 144
34 0 96
34 1 147
34 2 121
34 4 116
34 5 141
34 6 99
34 7 67
34 8 122
34 9 106
34 10 50
34 11 115
34 12 24
34 13 127
34 14 36
34 15 55
34 16 18
34 17 105
34 18 94
34 19 51
34 20 49
34 21 33
34 22 159
34 23 155
34 24 58
34 25 83
34 26 39
34 27 115
34 28 141
34 29 34
34 30 113
34 31 72
34 32 120
34 33 147
35 0 97
35 1 22
35 2 133
35 3 20
35 4 153
35 5 139
35 6 61
35 7 19
35 8 19
35 9 67
35 10 125
35 11 142
35 12 24
35 13 154
35 14 65
35 15 15
35 16 71
35 17 114
35 18 107
35 19 92
35 20 51
35 21 67
35 22 111
35 23 150
35 24 95
35 26 153
35 27 60
35 28 28
35 29 21
35 30 3
35 31 3
35 33 101
35 34 64
36 0 69
36 1 160
36 2 39
36 3 50
36 4 143
36 5 144
36 6 62
36 8 74
36 9 41
36 10 55
36 11 104
36 12 123
36 13 4
36 14 131
36 15 55
36 16 21
36 17 27
36 18 117
36 19 76
36 20 66
36 21 19
36 22 50
36 23 102
36 24 155
36 25 57
36 26 50
36 27 21
36 28 94
36 29 160
36 30 32
36 31 41
36 32 126
36 33 28
36 34 95
36 35 109
37 0 81
37 1 147
37 2 84
37 3 37
37 4 83
37 5 138
37 6 95
37 7 154
37 8 3
37 9 150
37 10 5
37 12 53
37 13 155
37 14 17
37 15 145
37 16 138
37 17 127
37 18 105
37 19 89
37 20 98
37 21 151
37 22 10
37 23 35
37 24 71
37 26 48
37 27 7
37 28 95
37 29 117
37 30 86
37 31 108
37 32 24
37 33 17
37 34 112
37 35 120
37 36 17
38 0 120
38 1 100
38 3 94
38 4 88
38 5 146
38 6 155
38 7 138
38 8 124
38 10 48
38 11 93
38 12 50
38 13 70
38 14 69
38 15 113
38 16 148
38 17 62
38 19 46
38 21 90
38 22 72
38 23 99
38 24 5
38 25 37
38 26 120
38 27 21
38 28 80
38 29 111
38 30 127
38 31 14
38 33 103
38 34 151
38 35 56
39 0 40
39 1 114
39 2 105
39 3 11
39 4 95
39 5 16
39 6 135
39 7 56
39 8 29
39 9 119
39 10 137
39 11 80
39 12 93
39 14 157
39 15 27
39 16 64
39 18 131
39 19 84
39 20 19
39 21 91
39 22 83
39 23 114
39 24 105
39 25 154
39 26 98
39 27 141
39 28 42
39 29 3
39 31 10
39 32 15
39 34 141
39 35 78
39 36 154
39 37 114
39 38 11
40 0 137
40 1 101
40 2 116
40 3 159
40 4 20
40 5 118
40 6 123
40 7 99
40 8 65
40 9 25
40 12 90
40 13 30
40 14 38
40 15 28
40 16 13
40 17 8
40 18 107
40 19 27
40 20 107
40 21 105
40 22 4
40 23 35
40 24 20
40 25 40
40 26 75
40 27 5
40 29 98
40 30 158
40 31 44
40 32 156
40 34 121
40 35 106
40 36 39
40 37 28
40 38 94
40 39 84
41 0 56
41 1 121
41 2 143
41 3 114
41 4 46
41 5 69
41 6 12
41 7 105
41 8 6
41 9 74
41 10 35
41 11 17
41 12 11
41 13 58
41 16 148
41 17 72
41 18 133
41 19 8
41 20 113
41 21 159
41 22 10
41 23 14
41 24 28
41 25 94
41 26 148
41 27 51
41 28 52
41 29 21
41 30 122
41 31 63
41 33 62
41 34 71
41 35 16
41 36 24
41 37 41
41 38 44
41 39 159
41 40 48
42 0 71
42 2 139
42 3 152
42 4 142
42 5 2
42 6 150
42 7 28
42 8 128
42 9 98
42 11 6
42 12 132
42 13 12
42 14 95
42 16 30
42 17 115
42 18 115
42 19 110
42 20 87
42 21 43
42 22 65
42 23 7
42 24 117
42 25 30
42 26 8
42 27 94
42 28 92
42 29 35
42 30 3
42 32 15
42 33 109
42 34 63
42 36 108
42 37 154
42 38 119
42 39 49
42 40 100
42 41 32
43 0 79
43 1 10
43 2 98
43 3 33
43 4 155
43 5 144
43 6 119
43 7 125
43 8 66
43 10 12
43 11 65
43 12 32
43 13 71
43 14 130
43 15 140
43 16 129
43 17 34
43 18 108
43 19 35
43 20 8
43 21 60
43 22 91
43 24 16
43 25 45
43 26 66
43 27 94
43 29 7
43 30 87
43 31 30
43 32 84
43 33 123
43 34 49
43 35 107
43 37 57
43 39 155
43 40 20
43 41 92
43 42 117
44 0 105
44 1 139
44 2 126
44 3 68
44 5 18
44 7 3
44 8 33
44 9 40
44 10 56
44 11 124
44 12 36
44 13 30
44 14 139
44 15 110
44 16 3
44 18 5
44 19 130
44 20 106
44 21 133
44 22 16
44 23 132
44 24 79
44 25 122
44 26 115
44 27 113
44 28 125
44 29 16
44 31 2
44 32 31
44 33 73
44 34 6
44 35 113
44 36 73
44 37 82
44 38 92
44 39 36
44 40 158
44 41 57
44 42 147
44 43 81
45 0 36
45 1 121
45 2 77
45 3 133
45 5 150
45 6 63
45 7 14
45 8 38
45 9 110
45 10 33
45 11 31
45 12 140
45 13 118
45 14 88
45 15 9
45 16 33
45 17 61
45 18 44
45 19 16
45 20 15
45 21 153
45 22 80
45 23 20
45 24 72
45 25 5
45 26 79
45 27 51
45 29 141
45 30 87
45 31 19
45 32 119
45 33 31
45 34 133
45 35 84
45 36 117
45 37 122
45 38 106
45 39 119
45 40 111
45 41 147
45 43 44
45 44 17
46 0 67
46 1 10
46 2 145
46 3 41
46 4 19
46 5 105
46 6 154
46 7 80
46 8 6
46 9 120
46 10 110
46 11 30
46 12 55
46 13 128
46 14 63
46 15 85
46 16 96
46 17 114
46 18 26
46 19 151
46 22 12
46 23 23
46 24 79
46 25 102
46 26 19
46 27 66
46 28 89
46 29 62
46 30 23
46 31 63
46 32 12
46 33 113
46 35 29
46 36 41
46 37 58
46 38 154
46 39 65
46 40 91
46 41 77
46 42 74
46 43 16
46 44 6
46 45 27
47 0 115
47 1 30
47 2 49
47 3 66
47 4 42
47 5 53
47 7 82
47 8 107
47 9 39
47 10 5
47 12 45
47 14 105
47 15 138
47 16 51
47 17 92
47 19 123
47 20 36
47 21 71
47 22 92
47 23 129
47 24 103
47 25 23
47 26 74
47 27 143
47 28 57
47 29 30
47 30 11
47 31 125
47 32 24
47 33 29
47 34 141
47 35 145
47 36 68
47 37 24
47 38 101
47 40 125
47 41 130
47 42 154
47 43 71
47 44 131
47 45 29
47 46 63
48 0 103
48 1 19
48 2 83
48 3 27
48 4 78
48 5 55
48 6 87
48 9 54
48 10 86
48 11 5
48 12 101
48 13 13
48 14 146
48 15 68
48 16 90
48 17 124
48 19 15
48 20 37
48 21 37
48 22 111
48 23 30
48 24 64
48 25 76
48 26 31
48 27 6
48 28 147
48 30 26
48 31 35
48 32 155
48 33 7
48 34 13
48 35 45
48 36 19
48 37 112
48 38 16
48 40 65
48 42 80
48 43 61
48 44 121
48 45 79
48 46 72
48 47 116
49 0 1
49 1 130
49 2 97
49 3 155
49 4 121
49 7 30
49 8 142
49 9 153
49 10 105
49 11 129
49 12 111
49 13 89
49 15 89
49 16 109
49 17 33
49 18 139
49 19 78
49 20 1
49 21 99
49 22 92
49 23 69
49 24 76
49 25 128
49 26 65
49 27 42
49 28 95
49 29 45
49 30 33
49 31 68
49 32 17
49 33 57
49 34 99
49 35 50
49 36 157
49 37 39
49 38 158
49 39 25
49 40 24
49 41 131
49 43 76
49 44 39
49 45 155
49 47 3
49 48 50
50 1 56
50 2 26
50 3 55
50 4 81
50 5 72
50 6 86
50 7 77
50 8 120
50 9 6
50 10 110
50 11 102
50 12 122
50 13 155
50 14 156
50 15 6
50 16 133
50 18 138
50 19 87
50 20 151
50 21 78
50 22 77
50 24 41
50 25 65
50 26 149
50 27 82
50 28 140
50 29 36
50 30 115
50 31 8
50 32 57
50 33 31
50 34 14
50 36 122
50 38 133
50 39 78
50 40 25
50 41 38
50 42 149
50 43 153
50 45 22
50 47 148
50 48 11
50 49 116
51 0 157
51 1 160
51 2 101
51 3 95
51 4 81
51 5 23
51 6 99
51 7 13
51 8 1
51 9 93
51 11 101
51 12 16
51 13 60
51 14 35
51 15 69
51 16 110
51 17 37
51 18 108
51 19 91
51 20 87
51 21 65
51 22 76
51 23 61
51 24 135
51 25 140
51 26 80
51 28 10
51 29 55
51 30 154
51 31 85
51 32 20
51 33 22
51 34 75
51 35 27
51 36 125
51 37 105
51 38 35
51 39 34
51 40 8
51 41 133
51 42 105
51 43 40
51 44 94
51 45 93
51 46 66
51 47 18
51 48 16
51 49 122
52 0 68
52 1 18
52 2 118
52 3 11
52 4 80
52 5 150
52 6 60
52 8 153
52 9 127
52 10 111
52 11 132
52 12 111
52 13 44
52 14 62
52 15 115
52 16 22
52 17 87
52 18 46
52 19 65
52 20 133
52 23 14
52 24 160
52 26 66
52 27 84
52 28 99
52 30 124
52 32 129
52 33 90
52 34 139
52 35 4
52 36 68
52 37 20
52 38 140
52 39 22
52 40 52
52 41 132
52 42 100
52 43 147
52 44 23
52 45 70
52 46 96
52 47 43
52 48 125
52 49 3
52 50 33
52 51 6
53 0 35
53 1 110
53 2 134
53 3 160
53 4 20
53 5 79
53 6 68
53 8 47
53 10 5
53 11 159
53 12 146
53 13 153
53 14 101
53 15 125
53 16 138
53 17 81
53 19 156
53 21 19
53 22 109
53 23 61
53 25 114
53 28 110
53 29 11
53 31 155
53 32 5
53 33 83
53 34 111
53 35 35
53 36 51
53 37 136
53 38 27
53 39 52
53 40 83
53 42 22
53 43 24
53 44 124
53 45 73
53 46 89
53 47 110
53 49 40
53 50 64
53 51 152
53 52 133
54 0 70
54 1 132
54 2 69
54 3 56
54 5 58
54 6 46
54 7 130
54 8 64
54 9 12
54 10 101
54 12 2
54 13 109
54 14 13
54 15 59
54 17 150
54 19 78
54 20 81
54 21 128
54 22 101
54 23 81
54 24 131
54 25 42
54 26 48
54 27 140
54 28 25
54 29 121
54 31 104
54 32 125
54 33 80
54 34 138
54 35 73
54 36 94
54 37 106
54 38 6
54 39 152
54 40 95
54 41 21
54 42 63
54 43 81
54 45 138
54 46 130
54 50 26
54 51 18
54 52 91
54 53 70
55 0 153
55 1 54
55 2 72
55 3 88
55 4 73
55 5 116
55 7 134
55 8 10
55 9 115
55 10 7
55 11 21
55 12 29
55 13 122
55 14 122
55 15 142
55 16 122
55 17 7
55 18 94
55 19 75
55 20 85
55 21 100
55 22 160
55 23 32
55 24 157
55 25 6
55 26 137
55 27 50
55 28 72
55 30 130
55 33 3
55 34 151
55 35 133
55 36 100
55 37 92
55 38 79
55 39 29
55 40 77
55 41 128
55 43 113
55 44 119
55 45 103
55 46 5
55 47 67
55 48 115
55 50 5
55 51 50
55 52 98
55 54 83
56 0 71
56 1 131
56 2 55
56 3 66
56 4 60
56 5 52
56 6 24
56 7 158
56 8 49
56 9 132
56 10 118
56 11 9
56 12 129
56 14 91
56 15 48
56 16 119
56 17 55
56 18 123
56 19 73
56 20 96
56 22 90
56 23 82
56 24 154
56 25 15
56 26 25
56 27 97
56 28 159
56 29 12
56 30 9
56 31 42
56 32 83
56 33 152
56 34 55
56 35 95
56 36 30
56 37 92
56 38 128
56 39 98
56 40 40
56 41 24
56 42 70
56 43 110
56 44 146
56 45 7
56 46 123
56 47 115
56 48 137
56 49 9
56 50 10
56 51 4
56 52 127
56 53 151
57 1 66
57 2 80
57 3 99
57 4 20
57 6 131
57 7 30
57 8 35
57 9 53
57 10 78
57 11 46
57 12 7
57 13 57
57 14 134
57 15 23
57 16 112
57 17 75
57 18 25
57 19 63
57 20 140
57 21 32
57 22 115
57 23 108
57 24 129
57 25 91
57 26 143
57 27 63
57 28 76
57 29 23
57 30 100
57 31 91
57 32 110
57 33 139
57 34 62
57 35 91
57 36 82
57 37 44
57 40 150
57 41 26
57 42 118
57 43 67
57 44 98
57 45 77
57 46 124
57 48 25
57 49 78
57 50 54
57 51 160
57 52 56
57 53 21
57 54 12
57 55 7
57 56 119
58 0 35
58 1 30
58 2 50
58 3 104
58 4 21
58 5 60
58 6 74
58 7 116
58 8 13
58 9 91
58 11 39
58 12 30
58 13 106
58 14 59
58 15 40
58 16 124
58 18 131
58 19 16
58 20 77
58 21 137
58 22 153
58 24 95
58 25 67
58 26 144
58 27 51
58 29 9
58 30 87
58 32 144
58 33 41
58 34 138
58 35 66
58 36 110
58 37 138
58 38 157
58 39 35
58 42 96
58 43 72
58 44 24
58 47 33
58 48 39
58 49 124
58 50 133
58 51 144
58 52 93
58 53 70
58 54 51
58 55 82
58 56 157
58 57 114
59 0 64
59 1 92
59 2 40
59 3 96
59 5 142
59 6 1
59 7 108
59 8 90
59 9 44
59 10 8
59 11 142
59 12 78
59 13 132
59 14 57
59 15 3
59 16 122
59 17 86
59 18 5
59 19 41
59 20 144
59 21 141
59 22 65
59 23 71
59 24 12
59 25 105
59 26 153
59 27 109
59 28 8
59 29 99
59 30 146
59 31 39
59 32 70
59 33 130
59 34 87
59 35 40
59 36 137
59 37 79
59 38 80
59 39 115
59 40 9
59 41 157
59 42 115
59 43 136
59 44 23
59 45 156
59 46 133
59 47 122
59 48 64
59 49 4
59 50 14
59 51 2
59 52 61
59 54 59
59 55 160
59 56 70
59 57 71
59 58 152
